<number of tasks>
89

<cycle time>
137

<task times>
1 28
2 17
3 7
4 10
5 12
6 16
7 13
8 8
9 13
10 24
11 16
12 24
13 12
14 20
15 22
16 22
17 22
18 47
19 6
20 12
21 6
22 22
23 7
24 14
25 68
26 15
27 8
28 74
29 32
30 11
31 18
32 15
33 42
34 27
35 38
36 38
37 26
38 35
39 31
40 8
41 14
42 8
43 8
44 8
45 17
46 7
47 19
48 12
49 24
50 26
51 22
52 14
53 27
54 60
55 4
56 2
57 1
58 9
59 5
60 6
61 7
62 12
63 2
64 11
65 14
66 6
67 21
68 14
69 1
70 6
71 21
72 11
73 14
74 28
75 12
76 11
77 30
78 22
79 14
80 31
81 18
82 16
83 7
84 38
85 8
86 31
87 29
88 12
89 18

<precedence relations>
1,2
2,3
3,4
4,5
4,6
4,7
4,8
4,9
5,10
6,11
7,12
8,18
9,18
10,14
11,12
12,13
13,14
14,15
14,16
15,17
16,54
17,18
18,19
18,20
19,22
20,21
20,28
21,54
22,23
23,24
24,25
25,26
25,27
25,29
26,37
27,33
28,29
29,31
30,54
31,32
32,33
33,34
34,35
35,36
35,37
36,38
37,38
38,39
39,40
39,41
39,42
39,43
40,44
41,53
42,53
43,45
44,52
45,46
46,47
47,48
47,49
49,50
50,51
51,52
52,53
53,68
53,69
53,70
53,71
54,55
55,56
56,57
57,58
57,59
57,60
57,61
57,62
57,63
57,64
57,65
57,66
58,67
59,67
60,67
61,67
62,67
63,67
64,67
65,67
66,67
67,73
68,72
69,72
70,72
71,73
72,78
72,80
73,74
74,75
74,76
75,77
76,81
77,78
78,79
79,81
80,81
81,82
81,84
81,85
82,83
83,86
84,86
85,86
86,87
87,88
87,89

<setup times forward>
1,30:1
2,30:1
3,30:1
4,8:3
4,30:1
5,8:3
5,10:3
5,12:3
5,13:3
5,30:1
6,8:3
6,10:3
6,30:1
7,8:3
7,10:3
7,12:3
7,30:1
8,5:3
8,6:3
8,7:3
8,9:3
8,11:3
8,16:5
8,18:5
8,30:2
9,8:3
9,10:3
9,12:3
9,13:3
9,14:3
9,15:3
9,16:2
9,17:3
9,18:2
9,30:1
10,6:3
10,7:3
10,9:3
10,11:3
10,30:2
11,8:3
11,10:3
11,12:3
11,30:1
12,5:3
12,9:3
12,30:2
13,5:3
13,9:3
13,30:2
14,9:3
14,16:5
14,30:2
15,9:3
15,16:5
15,30:2
16,8:5
16,9:2
16,15:5
16,17:5
16,25:3
16,26:3
16,27:3
16,28:3
16,29:3
16,30:3
16,31:3
16,36:2
16,37:2
16,38:2
16,39:2
16,40:4
16,41:4
16,42:4
16,43:1
16,44:4
16,45:1
16,46:1
16,47:1
16,49:1
16,50:4
16,51:4
16,52:4
16,54:1
16,68:2
16,69:2
16,70:2
16,71:2
16,72:2
16,80:2
17,9:3
17,16:5
17,18:5
17,30:2
18,30:3
19,28:3
19,30:3
19,54:1
19,55:4
19,56:4
19,57:4
19,62:4
19,63:4
19,65:4
20,25:3
20,26:3
20,27:3
20,28:3
20,30:3
21,25:3
21,26:3
21,27:3
21,28:3
21,29:3
21,30:3
21,31:3
21,36:2
21,37:2
21,38:2
21,39:2
21,40:4
21,41:4
21,42:4
21,43:1
21,44:4
21,45:1
21,46:1
21,47:1
21,49:1
21,50:4
21,51:4
21,52:4
21,54:1
21,68:2
21,69:2
21,70:2
21,71:2
21,72:2
21,80:2
22,28:3
22,30:3
22,54:1
22,55:4
22,56:4
22,57:4
22,62:4
22,63:4
22,65:4
23,28:3
23,30:3
23,54:1
23,55:4
23,56:4
23,57:4
23,62:4
23,63:4
23,65:4
24,25:3
24,28:3
24,30:3
24,54:1
24,55:4
24,56:4
24,57:4
24,62:4
24,63:4
24,65:4
25,16:3
25,20:3
25,21:3
25,54:4
25,55:1
25,56:1
25,57:1
25,58:3
25,59:3
25,60:3
25,61:3
25,62:1
25,63:1
25,64:3
25,65:1
25,66:3
25,67:3
26,16:3
26,20:3
26,21:3
26,32:3
26,33:3
26,34:3
26,35:3
26,36:1
26,37:1
26,54:4
26,55:1
26,56:1
26,57:1
26,58:3
26,59:3
26,60:3
26,61:3
26,62:1
26,63:1
26,64:3
26,65:1
26,66:3
26,67:3
27,16:3
27,20:3
27,21:3
27,32:3
27,33:3
27,54:4
27,55:1
27,56:1
27,57:1
27,58:3
27,59:3
27,60:3
27,61:3
27,62:1
27,63:1
27,64:3
27,65:1
27,66:3
27,67:3
28,16:3
28,19:3
28,21:3
28,22:3
28,23:3
28,24:3
28,54:4
28,55:1
28,56:1
28,57:1
28,58:3
28,59:3
28,60:3
28,61:3
28,62:1
28,63:1
28,64:3
28,65:1
28,66:3
28,67:3
29,16:3
29,21:3
29,54:4
29,55:1
29,56:1
29,57:1
29,58:3
29,59:3
29,60:3
29,61:3
29,62:1
29,63:1
29,64:3
29,65:1
29,66:3
29,67:3
30,1:1
30,2:1
30,3:1
30,4:1
30,5:1
30,6:1
30,7:1
30,8:2
30,9:1
30,10:2
30,11:1
30,12:2
30,13:2
30,14:2
30,15:2
30,16:3
30,17:2
30,18:3
30,19:3
30,20:3
30,21:3
30,22:3
30,23:3
30,24:3
30,32:3
30,33:3
30,34:3
30,35:3
30,36:1
30,37:1
30,38:1
30,39:1
30,40:1
30,41:1
30,42:1
30,43:4
30,44:1
30,45:4
30,46:4
30,47:4
30,48:3
30,49:4
30,50:1
30,51:1
30,52:1
30,53:3
30,54:4
30,68:5
30,69:5
30,70:5
30,71:5
30,72:5
30,80:5
31,16:3
31,21:3
31,32:3
31,54:4
31,55:1
31,56:1
31,57:1
31,58:3
31,59:3
31,60:3
31,61:3
31,62:1
31,63:1
31,64:3
31,65:1
31,66:3
31,67:3
32,26:3
32,27:3
32,30:3
32,54:1
32,55:4
32,56:4
32,57:4
32,62:4
32,63:4
32,65:4
33,26:3
33,30:3
33,54:1
33,55:4
33,56:4
33,57:4
33,62:4
33,63:4
33,65:4
34,26:3
34,30:3
34,54:1
34,55:4
34,56:4
34,57:4
34,62:4
34,63:4
34,65:4
35,26:3
35,30:3
35,36:2
35,37:2
35,54:1
35,55:4
35,56:4
35,57:4
35,62:4
35,63:4
35,65:4
36,16:2
36,21:2
36,26:1
36,30:1
36,54:3
36,55:2
36,56:2
36,57:2
36,58:2
36,59:2
36,60:2
36,61:2
36,62:2
36,63:2
36,64:2
36,65:2
36,66:2
36,67:2
37,16:2
37,21:2
37,30:1
37,54:3
37,55:2
37,56:2
37,57:2
37,58:2
37,59:2
37,60:2
37,61:2
37,62:2
37,63:2
37,64:2
37,65:2
37,66:2
37,67:2
38,16:2
38,21:2
38,30:1
38,54:3
38,55:2
38,56:2
38,57:2
38,58:2
38,59:2
38,60:2
38,61:2
38,62:2
38,63:2
38,64:2
38,65:2
38,66:2
38,67:2
39,16:2
39,21:2
39,30:1
39,40:2
39,41:2
39,42:2
39,43:3
39,54:3
39,55:2
39,56:2
39,57:2
39,58:2
39,59:2
39,60:2
39,61:2
39,62:2
39,63:2
39,64:2
39,65:2
39,66:2
39,67:2
40,16:4
40,21:4
40,30:1
40,43:5
40,45:5
40,46:5
40,47:5
40,48:4
40,49:5
40,54:5
40,58:4
40,59:4
40,60:4
40,61:4
40,64:4
40,66:4
40,67:4
41,16:4
41,21:4
41,30:1
41,43:5
41,45:5
41,46:5
41,47:5
41,48:4
41,49:5
41,53:4
41,54:5
41,58:4
41,59:4
41,60:4
41,61:4
41,64:4
41,66:4
41,67:4
42,16:4
42,21:4
42,30:1
42,43:5
42,45:5
42,46:5
42,47:5
42,48:4
42,49:5
42,53:4
42,54:5
42,58:4
42,59:4
42,60:4
42,61:4
42,64:4
42,66:4
42,67:4
43,16:1
43,21:1
43,30:4
43,40:5
43,41:5
43,42:5
43,44:5
43,55:5
43,56:5
43,57:5
43,58:1
43,59:1
43,60:1
43,61:1
43,62:5
43,63:5
43,64:1
43,65:5
43,66:1
43,67:1
44,16:4
44,21:4
44,30:1
44,43:5
44,45:5
44,46:5
44,47:5
44,48:4
44,49:5
44,54:5
44,58:4
44,59:4
44,60:4
44,61:4
44,64:4
44,66:4
44,67:4
45,16:1
45,21:1
45,30:4
45,40:5
45,41:5
45,42:5
45,44:5
45,55:5
45,56:5
45,57:5
45,58:1
45,59:1
45,60:1
45,61:1
45,62:5
45,63:5
45,64:1
45,65:5
45,66:1
45,67:1
46,16:1
46,21:1
46,30:4
46,40:5
46,41:5
46,42:5
46,44:5
46,55:5
46,56:5
46,57:5
46,58:1
46,59:1
46,60:1
46,61:1
46,62:5
46,63:5
46,64:1
46,65:5
46,66:1
46,67:1
47,16:1
47,21:1
47,30:4
47,40:5
47,41:5
47,42:5
47,44:5
47,48:1
47,55:5
47,56:5
47,57:5
47,58:1
47,59:1
47,60:1
47,61:1
47,62:5
47,63:5
47,64:1
47,65:5
47,66:1
47,67:1
48,30:3
48,40:4
48,41:4
48,42:4
48,44:4
48,49:1
48,50:4
48,51:4
48,52:4
48,54:1
48,55:4
48,56:4
48,57:4
48,62:4
48,63:4
48,65:4
48,68:2
48,69:2
48,70:2
48,71:2
48,72:2
48,73:2
48,74:2
48,75:1
48,76:1
48,77:1
48,78:1
48,79:1
48,80:2
48,81:1
48,82:1
48,83:3
48,84:3
48,85:1
48,86:3
48,87:3
48,88:3
48,89:3
49,16:1
49,21:1
49,30:4
49,40:5
49,41:5
49,42:5
49,44:5
49,48:1
49,50:5
49,55:5
49,56:5
49,57:5
49,58:1
49,59:1
49,60:1
49,61:1
49,62:5
49,63:5
49,64:1
49,65:5
49,66:1
49,67:1
50,16:4
50,21:4
50,30:1
50,48:4
50,54:5
50,58:4
50,59:4
50,60:4
50,61:4
50,64:4
50,66:4
50,67:4
51,16:4
51,21:4
51,30:1
51,48:4
51,54:5
51,58:4
51,59:4
51,60:4
51,61:4
51,64:4
51,66:4
51,67:4
52,16:4
52,21:4
52,30:1
52,48:4
52,53:4
52,54:5
52,58:4
52,59:4
52,60:4
52,61:4
52,64:4
52,66:4
52,67:4
53,30:3
53,54:1
53,55:4
53,56:4
53,57:4
53,62:4
53,63:4
53,65:4
53,68:2
53,69:2
53,70:2
53,71:2
54,19:1
54,22:1
54,23:1
54,24:1
54,25:4
54,26:4
54,27:4
54,28:4
54,29:4
54,31:4
54,32:1
54,33:1
54,34:1
54,35:1
54,36:3
54,37:3
54,38:3
54,39:3
54,40:5
54,41:5
54,42:5
54,44:5
54,48:1
54,50:5
54,51:5
54,52:5
54,53:1
54,55:5
54,68:1
54,69:1
54,70:1
54,71:1
54,72:1
54,80:1
55,19:4
55,22:4
55,23:4
55,24:4
55,25:1
55,26:1
55,27:1
55,28:1
55,29:1
55,31:1
55,32:4
55,33:4
55,34:4
55,35:4
55,36:2
55,37:2
55,38:2
55,39:2
55,43:5
55,45:5
55,46:5
55,47:5
55,48:4
55,49:5
55,53:4
55,68:6
55,69:6
55,70:6
55,71:6
55,72:6
55,80:6
56,19:4
56,22:4
56,23:4
56,24:4
56,25:1
56,26:1
56,27:1
56,28:1
56,29:1
56,31:1
56,32:4
56,33:4
56,34:4
56,35:4
56,36:2
56,37:2
56,38:2
56,39:2
56,43:5
56,45:5
56,46:5
56,47:5
56,48:4
56,49:5
56,53:4
56,68:6
56,69:6
56,70:6
56,71:6
56,72:6
56,80:6
57,19:4
57,22:4
57,23:4
57,24:4
57,25:1
57,26:1
57,27:1
57,28:1
57,29:1
57,31:1
57,32:4
57,33:4
57,34:4
57,35:4
57,36:2
57,37:2
57,38:2
57,39:2
57,43:5
57,45:5
57,46:5
57,47:5
57,48:4
57,49:5
57,53:4
57,58:4
57,59:4
57,60:4
57,61:4
57,64:4
57,66:4
57,68:6
57,69:6
57,70:6
57,71:6
57,72:6
57,80:6
58,25:3
58,26:3
58,27:3
58,28:3
58,29:3
58,31:3
58,36:2
58,37:2
58,38:2
58,39:2
58,40:4
58,41:4
58,42:4
58,43:1
58,44:4
58,45:1
58,46:1
58,47:1
58,49:1
58,50:4
58,51:4
58,52:4
58,62:4
58,63:4
58,65:4
58,68:2
58,69:2
58,70:2
58,71:2
58,72:2
58,80:2
59,25:3
59,26:3
59,27:3
59,28:3
59,29:3
59,31:3
59,36:2
59,37:2
59,38:2
59,39:2
59,40:4
59,41:4
59,42:4
59,43:1
59,44:4
59,45:1
59,46:1
59,47:1
59,49:1
59,50:4
59,51:4
59,52:4
59,62:4
59,63:4
59,65:4
59,68:2
59,69:2
59,70:2
59,71:2
59,72:2
59,80:2
60,25:3
60,26:3
60,27:3
60,28:3
60,29:3
60,31:3
60,36:2
60,37:2
60,38:2
60,39:2
60,40:4
60,41:4
60,42:4
60,43:1
60,44:4
60,45:1
60,46:1
60,47:1
60,49:1
60,50:4
60,51:4
60,52:4
60,62:4
60,63:4
60,65:4
60,68:2
60,69:2
60,70:2
60,71:2
60,72:2
60,80:2
61,25:3
61,26:3
61,27:3
61,28:3
61,29:3
61,31:3
61,36:2
61,37:2
61,38:2
61,39:2
61,40:4
61,41:4
61,42:4
61,43:1
61,44:4
61,45:1
61,46:1
61,47:1
61,49:1
61,50:4
61,51:4
61,52:4
61,62:4
61,63:4
61,65:4
61,68:2
61,69:2
61,70:2
61,71:2
61,72:2
61,80:2
62,19:4
62,22:4
62,23:4
62,24:4
62,25:1
62,26:1
62,27:1
62,28:1
62,29:1
62,31:1
62,32:4
62,33:4
62,34:4
62,35:4
62,36:2
62,37:2
62,38:2
62,39:2
62,43:5
62,45:5
62,46:5
62,47:5
62,48:4
62,49:5
62,53:4
62,58:4
62,59:4
62,60:4
62,61:4
62,64:4
62,66:4
62,67:4
62,68:6
62,69:6
62,70:6
62,71:6
62,72:6
62,80:6
63,19:4
63,22:4
63,23:4
63,24:4
63,25:1
63,26:1
63,27:1
63,28:1
63,29:1
63,31:1
63,32:4
63,33:4
63,34:4
63,35:4
63,36:2
63,37:2
63,38:2
63,39:2
63,43:5
63,45:5
63,46:5
63,47:5
63,48:4
63,49:5
63,53:4
63,58:4
63,59:4
63,60:4
63,61:4
63,64:4
63,66:4
63,67:4
63,68:6
63,69:6
63,70:6
63,71:6
63,72:6
63,80:6
64,25:3
64,26:3
64,27:3
64,28:3
64,29:3
64,31:3
64,36:2
64,37:2
64,38:2
64,39:2
64,40:4
64,41:4
64,42:4
64,43:1
64,44:4
64,45:1
64,46:1
64,47:1
64,49:1
64,50:4
64,51:4
64,52:4
64,62:4
64,63:4
64,65:4
64,68:2
64,69:2
64,70:2
64,71:2
64,72:2
64,80:2
65,19:4
65,22:4
65,23:4
65,24:4
65,25:1
65,26:1
65,27:1
65,28:1
65,29:1
65,31:1
65,32:4
65,33:4
65,34:4
65,35:4
65,36:2
65,37:2
65,38:2
65,39:2
65,43:5
65,45:5
65,46:5
65,47:5
65,48:4
65,49:5
65,53:4
65,58:4
65,59:4
65,60:4
65,61:4
65,64:4
65,66:4
65,67:4
65,68:6
65,69:6
65,70:6
65,71:6
65,72:6
65,80:6
66,25:3
66,26:3
66,27:3
66,28:3
66,29:3
66,31:3
66,36:2
66,37:2
66,38:2
66,39:2
66,40:4
66,41:4
66,42:4
66,43:1
66,44:4
66,45:1
66,46:1
66,47:1
66,49:1
66,50:4
66,51:4
66,52:4
66,62:4
66,63:4
66,65:4
66,68:2
66,69:2
66,70:2
66,71:2
66,72:2
66,80:2
67,25:3
67,26:3
67,27:3
67,28:3
67,29:3
67,31:3
67,36:2
67,37:2
67,38:2
67,39:2
67,40:4
67,41:4
67,42:4
67,43:1
67,44:4
67,45:1
67,46:1
67,47:1
67,49:1
67,50:4
67,51:4
67,52:4
67,68:2
67,69:2
67,70:2
67,71:2
67,72:2
67,73:2
67,80:2
68,16:2
68,21:2
68,30:5
68,48:2
68,54:1
68,55:6
68,56:6
68,57:6
68,58:2
68,59:2
68,60:2
68,61:2
68,62:6
68,63:6
68,64:2
68,65:6
68,66:2
68,67:2
68,75:3
68,76:3
68,77:3
69,16:2
69,21:2
69,30:5
69,48:2
69,54:1
69,55:6
69,56:6
69,57:6
69,58:2
69,59:2
69,60:2
69,61:2
69,62:6
69,63:6
69,64:2
69,65:6
69,66:2
69,67:2
69,75:3
69,76:3
69,77:3
70,16:2
70,21:2
70,30:5
70,48:2
70,54:1
70,55:6
70,56:6
70,57:6
70,58:2
70,59:2
70,60:2
70,61:2
70,62:6
70,63:6
70,64:2
70,65:6
70,66:2
70,67:2
70,75:3
70,76:3
70,77:3
71,16:2
71,21:2
71,30:5
71,48:2
71,54:1
71,55:6
71,56:6
71,57:6
71,58:2
71,59:2
71,60:2
71,61:2
71,62:6
71,63:6
71,64:2
71,65:6
71,66:2
71,67:2
72,16:2
72,21:2
72,30:5
72,48:2
72,54:1
72,55:6
72,56:6
72,57:6
72,58:2
72,59:2
72,60:2
72,61:2
72,62:6
72,63:6
72,64:2
72,65:6
72,66:2
72,67:2
72,75:3
72,76:3
72,77:3
72,78:3
73,48:2
74,48:2
74,75:3
74,76:3
75,48:1
75,68:3
75,69:3
75,70:3
75,72:3
75,80:3
76,48:1
76,68:3
76,69:3
76,70:3
76,72:3
76,80:3
77,48:1
77,68:3
77,69:3
77,70:3
77,72:3
77,80:3
78,48:1
78,80:3
79,48:1
79,80:3
80,16:2
80,21:2
80,30:5
80,48:2
80,54:1
80,55:6
80,56:6
80,57:6
80,58:2
80,59:2
80,60:2
80,61:2
80,62:6
80,63:6
80,64:2
80,65:6
80,66:2
80,67:2
80,75:3
80,76:3
80,77:3
80,78:3
80,79:3
80,81:3
81,48:1
81,84:2
82,48:1
82,83:2
82,84:2
83,48:3
83,85:2
84,48:3
84,82:2
84,85:2
85,48:1
85,83:2
85,84:2
85,86:2
86,48:3
87,48:3
88,48:3
89,48:3

<setup times backward>
1,1:1
2,1:1
2,2:1
3,1:1
3,2:1
3,3:1
4,1:1
4,2:1
4,3:1
4,4:1
5,1:1
5,2:1
5,3:1
5,4:1
5,5:1
5,6:1
5,7:1
5,9:1
5,11:1
6,1:1
6,2:1
6,3:1
6,4:1
6,5:1
6,6:1
6,7:1
6,9:1
7,1:1
7,2:1
7,3:1
7,4:1
7,5:1
7,6:1
7,7:1
7,9:1
7,11:1
8,1:4
8,2:4
8,3:4
8,4:4
8,5:4
8,6:4
8,7:4
8,8:1
8,9:4
8,10:1
8,11:4
8,12:1
8,13:1
8,14:1
8,15:1
8,16:6
8,17:1
8,30:3
9,1:1
9,2:1
9,3:1
9,4:1
9,5:1
9,6:1
9,7:1
9,9:1
9,11:1
9,16:3
10,1:4
10,2:4
10,3:4
10,4:4
10,5:4
10,6:4
10,7:4
10,8:1
10,9:4
10,10:1
10,11:4
10,12:1
10,13:1
10,30:3
11,1:1
11,2:1
11,3:1
11,4:1
11,5:1
11,6:1
11,7:1
11,9:1
11,11:1
12,1:4
12,2:4
12,3:4
12,4:4
12,5:4
12,6:4
12,7:4
12,8:1
12,9:4
12,10:1
12,11:4
12,12:1
12,30:3
13,1:4
13,2:4
13,3:4
13,4:4
13,5:4
13,6:4
13,7:4
13,8:1
13,9:4
13,10:1
13,11:4
13,12:1
13,13:1
13,30:3
14,1:4
14,2:4
14,3:4
14,4:4
14,5:4
14,6:4
14,7:4
14,8:1
14,9:4
14,10:1
14,11:4
14,12:1
14,13:1
14,14:1
14,30:3
15,1:4
15,2:4
15,3:4
15,4:4
15,5:4
15,6:4
15,7:4
15,8:1
15,9:4
15,10:1
15,11:4
15,12:1
15,13:1
15,14:1
15,15:1
15,16:6
15,30:3
16,16:1
16,18:1
16,19:1
16,20:1
16,21:1
16,22:1
16,23:1
16,24:1
16,32:1
16,33:1
16,34:1
16,35:1
16,43:2
16,45:2
16,46:2
16,47:2
16,48:1
16,49:2
16,53:1
16,68:3
16,69:3
16,70:3
16,71:3
16,72:3
16,80:3
17,1:4
17,2:4
17,3:4
17,4:4
17,5:4
17,6:4
17,7:4
17,8:1
17,9:4
17,10:1
17,11:4
17,12:1
17,13:1
17,14:1
17,15:1
17,16:6
17,17:1
17,30:3
18,16:1
18,18:1
19,16:1
19,18:1
19,19:1
19,20:1
19,21:1
19,54:2
19,58:1
19,59:1
19,60:1
19,61:1
19,64:1
19,66:1
19,67:1
20,16:1
20,18:1
20,19:1
20,20:1
20,22:1
20,23:1
20,24:1
21,16:1
21,18:1
21,19:1
21,20:1
21,21:1
21,22:1
21,23:1
21,24:1
21,32:1
21,33:1
21,34:1
21,35:1
21,43:2
21,45:2
21,46:2
21,47:2
21,48:1
21,49:2
21,53:1
21,68:3
21,69:3
21,70:3
21,71:3
21,72:3
21,80:3
22,16:1
22,18:1
22,19:1
22,20:1
22,21:1
22,22:1
22,54:2
22,58:1
22,59:1
22,60:1
22,61:1
22,64:1
22,66:1
22,67:1
23,16:1
23,18:1
23,19:1
23,20:1
23,21:1
23,22:1
23,23:1
23,54:2
23,58:1
23,59:1
23,60:1
23,61:1
23,64:1
23,66:1
23,67:1
24,16:1
24,18:1
24,19:1
24,20:1
24,21:1
24,22:1
24,23:1
24,24:1
24,54:2
24,58:1
24,59:1
24,60:1
24,61:1
24,64:1
24,66:1
24,67:1
25,1:2
25,2:2
25,3:2
25,4:2
25,5:2
25,6:2
25,7:2
25,9:2
25,11:2
25,16:4
25,18:4
25,19:4
25,20:4
25,21:4
25,22:4
25,23:4
25,24:4
25,25:1
25,28:1
25,30:1
25,54:5
25,58:4
25,59:4
25,60:4
25,61:4
25,64:4
25,66:4
25,67:4
26,1:2
26,2:2
26,3:2
26,4:2
26,5:2
26,6:2
26,7:2
26,9:2
26,11:2
26,16:4
26,18:4
26,19:4
26,20:4
26,21:4
26,22:4
26,23:4
26,24:4
26,25:1
26,26:1
26,27:1
26,28:1
26,29:1
26,30:1
26,31:1
26,32:4
26,33:4
26,34:4
26,35:4
26,36:2
26,54:5
26,58:4
26,59:4
26,60:4
26,61:4
26,64:4
26,66:4
26,67:4
27,1:2
27,2:2
27,3:2
27,4:2
27,5:2
27,6:2
27,7:2
27,9:2
27,11:2
27,16:4
27,18:4
27,19:4
27,20:4
27,21:4
27,22:4
27,23:4
27,24:4
27,25:1
27,26:1
27,27:1
27,28:1
27,29:1
27,30:1
27,31:1
27,32:4
27,54:5
27,58:4
27,59:4
27,60:4
27,61:4
27,64:4
27,66:4
27,67:4
28,1:2
28,2:2
28,3:2
28,4:2
28,5:2
28,6:2
28,7:2
28,9:2
28,11:2
28,16:4
28,18:4
28,19:4
28,20:4
28,21:4
28,22:4
28,23:4
28,24:4
28,25:1
28,26:1
28,27:1
28,28:1
28,30:1
28,54:5
28,58:4
28,59:4
28,60:4
28,61:4
28,64:4
28,66:4
28,67:4
29,1:2
29,2:2
29,3:2
29,4:2
29,5:2
29,6:2
29,7:2
29,9:2
29,11:2
29,16:4
29,18:4
29,19:4
29,20:4
29,21:4
29,22:4
29,23:4
29,24:4
29,25:1
29,26:1
29,27:1
29,28:1
29,29:1
29,30:1
29,54:5
29,58:4
29,59:4
29,60:4
29,61:4
29,64:4
29,66:4
29,67:4
30,1:2
30,2:2
30,3:2
30,4:2
30,5:2
30,6:2
30,7:2
30,9:2
30,11:2
30,16:4
30,18:4
30,19:4
30,20:4
30,21:4
30,22:4
30,23:4
30,24:4
30,25:1
30,26:1
30,27:1
30,28:1
30,29:1
30,30:1
30,31:1
30,32:4
30,33:4
30,34:4
30,35:4
30,36:2
30,37:2
30,38:2
30,39:2
30,43:5
30,45:5
30,46:5
30,47:5
30,48:4
30,49:5
30,53:4
30,68:6
30,69:6
30,70:6
30,71:6
30,72:6
30,80:6
31,1:2
31,2:2
31,3:2
31,4:2
31,5:2
31,6:2
31,7:2
31,9:2
31,11:2
31,16:4
31,18:4
31,19:4
31,20:4
31,21:4
31,22:4
31,23:4
31,24:4
31,25:1
31,26:1
31,27:1
31,28:1
31,29:1
31,30:1
31,31:1
31,54:5
31,58:4
31,59:4
31,60:4
31,61:4
31,64:4
31,66:4
31,67:4
32,16:1
32,18:1
32,19:1
32,20:1
32,21:1
32,22:1
32,23:1
32,24:1
32,32:1
32,54:2
32,58:1
32,59:1
32,60:1
32,61:1
32,64:1
32,66:1
32,67:1
33,16:1
33,18:1
33,19:1
33,20:1
33,21:1
33,22:1
33,23:1
33,24:1
33,32:1
33,33:1
33,54:2
33,58:1
33,59:1
33,60:1
33,61:1
33,64:1
33,66:1
33,67:1
34,16:1
34,18:1
34,19:1
34,20:1
34,21:1
34,22:1
34,23:1
34,24:1
34,32:1
34,33:1
34,34:1
34,54:2
34,58:1
34,59:1
34,60:1
34,61:1
34,64:1
34,66:1
34,67:1
35,16:1
35,18:1
35,19:1
35,20:1
35,21:1
35,22:1
35,23:1
35,24:1
35,32:1
35,33:1
35,34:1
35,35:1
35,54:2
35,58:1
35,59:1
35,60:1
35,61:1
35,64:1
35,66:1
35,67:1
36,1:1
36,2:1
36,3:1
36,4:1
36,5:1
36,6:1
36,7:1
36,9:1
36,11:1
36,16:3
36,18:3
36,19:3
36,20:3
36,21:3
36,22:3
36,23:3
36,24:3
36,32:3
36,33:3
36,34:3
36,35:3
36,36:1
36,37:1
36,54:4
36,58:3
36,59:3
36,60:3
36,61:3
36,64:3
36,66:3
36,67:3
37,1:1
37,2:1
37,3:1
37,4:1
37,5:1
37,6:1
37,7:1
37,9:1
37,11:1
37,16:3
37,18:3
37,19:3
37,20:3
37,21:3
37,22:3
37,23:3
37,24:3
37,32:3
37,33:3
37,34:3
37,35:3
37,36:1
37,37:1
37,54:4
37,58:3
37,59:3
37,60:3
37,61:3
37,64:3
37,66:3
37,67:3
38,1:1
38,2:1
38,3:1
38,4:1
38,5:1
38,6:1
38,7:1
38,9:1
38,11:1
38,16:3
38,18:3
38,19:3
38,20:3
38,21:3
38,22:3
38,23:3
38,24:3
38,32:3
38,33:3
38,34:3
38,35:3
38,36:1
38,37:1
38,38:1
38,54:4
38,58:3
38,59:3
38,60:3
38,61:3
38,64:3
38,66:3
38,67:3
39,1:1
39,2:1
39,3:1
39,4:1
39,5:1
39,6:1
39,7:1
39,9:1
39,11:1
39,16:3
39,18:3
39,19:3
39,20:3
39,21:3
39,22:3
39,23:3
39,24:3
39,32:3
39,33:3
39,34:3
39,35:3
39,36:1
39,37:1
39,38:1
39,39:1
39,54:4
39,58:3
39,59:3
39,60:3
39,61:3
39,64:3
39,66:3
39,67:3
40,1:3
40,2:3
40,3:3
40,4:3
40,5:3
40,6:3
40,7:3
40,9:3
40,11:3
40,16:5
40,18:5
40,19:5
40,20:5
40,21:5
40,22:5
40,23:5
40,24:5
40,25:2
40,26:2
40,27:2
40,28:2
40,29:2
40,30:2
40,31:2
40,32:5
40,33:5
40,34:5
40,35:5
40,36:3
40,37:3
40,38:3
40,39:3
40,40:1
40,41:1
40,42:1
40,43:6
40,45:6
40,46:6
40,47:6
40,48:5
40,49:6
40,50:1
40,51:1
40,54:6
40,55:1
40,56:1
40,57:1
40,58:5
40,59:5
40,60:5
40,61:5
40,62:1
40,63:1
40,64:5
40,65:1
40,66:5
40,67:5
41,1:3
41,2:3
41,3:3
41,4:3
41,5:3
41,6:3
41,7:3
41,9:3
41,11:3
41,16:5
41,18:5
41,19:5
41,20:5
41,21:5
41,22:5
41,23:5
41,24:5
41,25:2
41,26:2
41,27:2
41,28:2
41,29:2
41,30:2
41,31:2
41,32:5
41,33:5
41,34:5
41,35:5
41,36:3
41,37:3
41,38:3
41,39:3
41,40:1
41,41:1
41,42:1
41,43:6
41,44:1
41,45:6
41,46:6
41,47:6
41,48:5
41,49:6
41,50:1
41,51:1
41,52:1
41,54:6
41,55:1
41,56:1
41,57:1
41,58:5
41,59:5
41,60:5
41,61:5
41,62:1
41,63:1
41,64:5
41,65:1
41,66:5
41,67:5
42,1:3
42,2:3
42,3:3
42,4:3
42,5:3
42,6:3
42,7:3
42,9:3
42,11:3
42,16:5
42,18:5
42,19:5
42,20:5
42,21:5
42,22:5
42,23:5
42,24:5
42,25:2
42,26:2
42,27:2
42,28:2
42,29:2
42,30:2
42,31:2
42,32:5
42,33:5
42,34:5
42,35:5
42,36:3
42,37:3
42,38:3
42,39:3
42,40:1
42,41:1
42,42:1
42,43:6
42,44:1
42,45:6
42,46:6
42,47:6
42,48:5
42,49:6
42,50:1
42,51:1
42,52:1
42,54:6
42,55:1
42,56:1
42,57:1
42,58:5
42,59:5
42,60:5
42,61:5
42,62:1
42,63:1
42,64:5
42,65:1
42,66:5
42,67:5
43,43:1
43,54:1
44,1:3
44,2:3
44,3:3
44,4:3
44,5:3
44,6:3
44,7:3
44,9:3
44,11:3
44,16:5
44,18:5
44,19:5
44,20:5
44,21:5
44,22:5
44,23:5
44,24:5
44,25:2
44,26:2
44,27:2
44,28:2
44,29:2
44,30:2
44,31:2
44,32:5
44,33:5
44,34:5
44,35:5
44,36:3
44,37:3
44,38:3
44,39:3
44,40:1
44,41:1
44,42:1
44,43:6
44,44:1
44,45:6
44,46:6
44,47:6
44,48:5
44,49:6
44,50:1
44,51:1
44,54:6
44,55:1
44,56:1
44,57:1
44,58:5
44,59:5
44,60:5
44,61:5
44,62:1
44,63:1
44,64:5
44,65:1
44,66:5
44,67:5
45,43:1
45,45:1
45,54:1
46,43:1
46,45:1
46,46:1
46,54:1
47,43:1
47,45:1
47,46:1
47,47:1
47,54:1
48,16:1
48,18:1
48,19:1
48,20:1
48,21:1
48,22:1
48,23:1
48,24:1
48,32:1
48,33:1
48,34:1
48,35:1
48,43:2
48,45:2
48,46:2
48,47:2
48,48:1
48,49:2
48,53:1
48,54:2
48,58:1
48,59:1
48,60:1
48,61:1
48,64:1
48,66:1
48,67:1
48,68:3
48,69:3
48,70:3
48,71:3
48,72:3
48,73:3
48,74:3
48,80:3
49,43:1
49,45:1
49,46:1
49,47:1
49,49:1
49,54:1
50,1:3
50,2:3
50,3:3
50,4:3
50,5:3
50,6:3
50,7:3
50,9:3
50,11:3
50,16:5
50,18:5
50,19:5
50,20:5
50,21:5
50,22:5
50,23:5
50,24:5
50,25:2
50,26:2
50,27:2
50,28:2
50,29:2
50,30:2
50,31:2
50,32:5
50,33:5
50,34:5
50,35:5
50,36:3
50,37:3
50,38:3
50,39:3
50,40:1
50,41:1
50,42:1
50,43:6
50,44:1
50,45:6
50,46:6
50,47:6
50,48:5
50,49:6
50,50:1
50,54:6
50,55:1
50,56:1
50,57:1
50,58:5
50,59:5
50,60:5
50,61:5
50,62:1
50,63:1
50,64:5
50,65:1
50,66:5
50,67:5
51,1:3
51,2:3
51,3:3
51,4:3
51,5:3
51,6:3
51,7:3
51,9:3
51,11:3
51,16:5
51,18:5
51,19:5
51,20:5
51,21:5
51,22:5
51,23:5
51,24:5
51,25:2
51,26:2
51,27:2
51,28:2
51,29:2
51,30:2
51,31:2
51,32:5
51,33:5
51,34:5
51,35:5
51,36:3
51,37:3
51,38:3
51,39:3
51,40:1
51,41:1
51,42:1
51,43:6
51,44:1
51,45:6
51,46:6
51,47:6
51,48:5
51,49:6
51,50:1
51,51:1
51,54:6
51,55:1
51,56:1
51,57:1
51,58:5
51,59:5
51,60:5
51,61:5
51,62:1
51,63:1
51,64:5
51,65:1
51,66:5
51,67:5
52,1:3
52,2:3
52,3:3
52,4:3
52,5:3
52,6:3
52,7:3
52,9:3
52,11:3
52,16:5
52,18:5
52,19:5
52,20:5
52,21:5
52,22:5
52,23:5
52,24:5
52,25:2
52,26:2
52,27:2
52,28:2
52,29:2
52,30:2
52,31:2
52,32:5
52,33:5
52,34:5
52,35:5
52,36:3
52,37:3
52,38:3
52,39:3
52,40:1
52,41:1
52,42:1
52,43:6
52,44:1
52,45:6
52,46:6
52,47:6
52,48:5
52,49:6
52,50:1
52,51:1
52,52:1
52,54:6
52,55:1
52,56:1
52,57:1
52,58:5
52,59:5
52,60:5
52,61:5
52,62:1
52,63:1
52,64:5
52,65:1
52,66:5
52,67:5
53,16:1
53,18:1
53,19:1
53,20:1
53,21:1
53,22:1
53,23:1
53,24:1
53,32:1
53,33:1
53,34:1
53,35:1
53,43:2
53,45:2
53,46:2
53,47:2
53,48:1
53,49:2
53,53:1
53,54:2
53,58:1
53,59:1
53,60:1
53,61:1
53,64:1
53,66:1
53,67:1
54,43:1
54,45:1
54,46:1
54,47:1
54,49:1
54,54:1
54,68:2
54,69:2
54,70:2
54,71:2
54,72:2
54,80:2
55,1:3
55,2:3
55,3:3
55,4:3
55,5:3
55,6:3
55,7:3
55,9:3
55,11:3
55,16:5
55,18:5
55,19:5
55,20:5
55,21:5
55,22:5
55,23:5
55,24:5
55,25:2
55,26:2
55,27:2
55,28:2
55,29:2
55,30:2
55,31:2
55,32:5
55,33:5
55,34:5
55,35:5
55,36:3
55,37:3
55,38:3
55,39:3
55,40:1
55,41:1
55,42:1
55,43:6
55,44:1
55,45:6
55,46:6
55,47:6
55,48:5
55,49:6
55,50:1
55,51:1
55,52:1
55,53:5
55,54:6
55,55:1
55,68:7
55,69:7
55,70:7
55,71:7
55,72:7
55,80:7
56,1:3
56,2:3
56,3:3
56,4:3
56,5:3
56,6:3
56,7:3
56,9:3
56,11:3
56,16:5
56,18:5
56,19:5
56,20:5
56,21:5
56,22:5
56,23:5
56,24:5
56,25:2
56,26:2
56,27:2
56,28:2
56,29:2
56,30:2
56,31:2
56,32:5
56,33:5
56,34:5
56,35:5
56,36:3
56,37:3
56,38:3
56,39:3
56,40:1
56,41:1
56,42:1
56,43:6
56,44:1
56,45:6
56,46:6
56,47:6
56,48:5
56,49:6
56,50:1
56,51:1
56,52:1
56,53:5
56,54:6
56,55:1
56,56:1
56,68:7
56,69:7
56,70:7
56,71:7
56,72:7
56,80:7
57,1:3
57,2:3
57,3:3
57,4:3
57,5:3
57,6:3
57,7:3
57,9:3
57,11:3
57,16:5
57,18:5
57,19:5
57,20:5
57,21:5
57,22:5
57,23:5
57,24:5
57,25:2
57,26:2
57,27:2
57,28:2
57,29:2
57,30:2
57,31:2
57,32:5
57,33:5
57,34:5
57,35:5
57,36:3
57,37:3
57,38:3
57,39:3
57,40:1
57,41:1
57,42:1
57,43:6
57,44:1
57,45:6
57,46:6
57,47:6
57,48:5
57,49:6
57,50:1
57,51:1
57,52:1
57,53:5
57,54:6
57,55:1
57,56:1
57,57:1
57,68:7
57,69:7
57,70:7
57,71:7
57,72:7
57,80:7
58,16:1
58,18:1
58,19:1
58,20:1
58,21:1
58,22:1
58,23:1
58,24:1
58,32:1
58,33:1
58,34:1
58,35:1
58,43:2
58,45:2
58,46:2
58,47:2
58,48:1
58,49:2
58,53:1
58,54:2
58,58:1
58,59:1
58,60:1
58,61:1
58,64:1
58,66:1
58,68:3
58,69:3
58,70:3
58,71:3
58,72:3
58,80:3
59,16:1
59,18:1
59,19:1
59,20:1
59,21:1
59,22:1
59,23:1
59,24:1
59,32:1
59,33:1
59,34:1
59,35:1
59,43:2
59,45:2
59,46:2
59,47:2
59,48:1
59,49:2
59,53:1
59,54:2
59,58:1
59,59:1
59,60:1
59,61:1
59,64:1
59,66:1
59,68:3
59,69:3
59,70:3
59,71:3
59,72:3
59,80:3
60,16:1
60,18:1
60,19:1
60,20:1
60,21:1
60,22:1
60,23:1
60,24:1
60,32:1
60,33:1
60,34:1
60,35:1
60,43:2
60,45:2
60,46:2
60,47:2
60,48:1
60,49:2
60,53:1
60,54:2
60,58:1
60,59:1
60,60:1
60,61:1
60,64:1
60,66:1
60,68:3
60,69:3
60,70:3
60,71:3
60,72:3
60,80:3
61,16:1
61,18:1
61,19:1
61,20:1
61,21:1
61,22:1
61,23:1
61,24:1
61,32:1
61,33:1
61,34:1
61,35:1
61,43:2
61,45:2
61,46:2
61,47:2
61,48:1
61,49:2
61,53:1
61,54:2
61,58:1
61,59:1
61,60:1
61,61:1
61,64:1
61,66:1
61,68:3
61,69:3
61,70:3
61,71:3
61,72:3
61,80:3
62,1:3
62,2:3
62,3:3
62,4:3
62,5:3
62,6:3
62,7:3
62,9:3
62,11:3
62,16:5
62,18:5
62,19:5
62,20:5
62,21:5
62,22:5
62,23:5
62,24:5
62,25:2
62,26:2
62,27:2
62,28:2
62,29:2
62,30:2
62,31:2
62,32:5
62,33:5
62,34:5
62,35:5
62,36:3
62,37:3
62,38:3
62,39:3
62,40:1
62,41:1
62,42:1
62,43:6
62,44:1
62,45:6
62,46:6
62,47:6
62,48:5
62,49:6
62,50:1
62,51:1
62,52:1
62,53:5
62,54:6
62,55:1
62,56:1
62,57:1
62,58:5
62,59:5
62,60:5
62,61:5
62,62:1
62,63:1
62,64:5
62,65:1
62,66:5
62,68:7
62,69:7
62,70:7
62,71:7
62,72:7
62,80:7
63,1:3
63,2:3
63,3:3
63,4:3
63,5:3
63,6:3
63,7:3
63,9:3
63,11:3
63,16:5
63,18:5
63,19:5
63,20:5
63,21:5
63,22:5
63,23:5
63,24:5
63,25:2
63,26:2
63,27:2
63,28:2
63,29:2
63,30:2
63,31:2
63,32:5
63,33:5
63,34:5
63,35:5
63,36:3
63,37:3
63,38:3
63,39:3
63,40:1
63,41:1
63,42:1
63,43:6
63,44:1
63,45:6
63,46:6
63,47:6
63,48:5
63,49:6
63,50:1
63,51:1
63,52:1
63,53:5
63,54:6
63,55:1
63,56:1
63,57:1
63,58:5
63,59:5
63,60:5
63,61:5
63,62:1
63,63:1
63,64:5
63,65:1
63,66:5
63,68:7
63,69:7
63,70:7
63,71:7
63,72:7
63,80:7
64,16:1
64,18:1
64,19:1
64,20:1
64,21:1
64,22:1
64,23:1
64,24:1
64,32:1
64,33:1
64,34:1
64,35:1
64,43:2
64,45:2
64,46:2
64,47:2
64,48:1
64,49:2
64,53:1
64,54:2
64,58:1
64,59:1
64,60:1
64,61:1
64,64:1
64,66:1
64,68:3
64,69:3
64,70:3
64,71:3
64,72:3
64,80:3
65,1:3
65,2:3
65,3:3
65,4:3
65,5:3
65,6:3
65,7:3
65,9:3
65,11:3
65,16:5
65,18:5
65,19:5
65,20:5
65,21:5
65,22:5
65,23:5
65,24:5
65,25:2
65,26:2
65,27:2
65,28:2
65,29:2
65,30:2
65,31:2
65,32:5
65,33:5
65,34:5
65,35:5
65,36:3
65,37:3
65,38:3
65,39:3
65,40:1
65,41:1
65,42:1
65,43:6
65,44:1
65,45:6
65,46:6
65,47:6
65,48:5
65,49:6
65,50:1
65,51:1
65,52:1
65,53:5
65,54:6
65,55:1
65,56:1
65,57:1
65,58:5
65,59:5
65,60:5
65,61:5
65,62:1
65,63:1
65,64:5
65,65:1
65,66:5
65,68:7
65,69:7
65,70:7
65,71:7
65,72:7
65,80:7
66,16:1
66,18:1
66,19:1
66,20:1
66,21:1
66,22:1
66,23:1
66,24:1
66,32:1
66,33:1
66,34:1
66,35:1
66,43:2
66,45:2
66,46:2
66,47:2
66,48:1
66,49:2
66,53:1
66,54:2
66,58:1
66,59:1
66,60:1
66,61:1
66,64:1
66,66:1
66,68:3
66,69:3
66,70:3
66,71:3
66,72:3
66,80:3
67,16:1
67,18:1
67,19:1
67,20:1
67,21:1
67,22:1
67,23:1
67,24:1
67,32:1
67,33:1
67,34:1
67,35:1
67,43:2
67,45:2
67,46:2
67,47:2
67,48:1
67,49:2
67,53:1
67,54:2
67,58:1
67,59:1
67,60:1
67,61:1
67,64:1
67,66:1
67,67:1
67,68:3
67,69:3
67,70:3
67,71:3
67,72:3
67,80:3
68,68:1
68,69:1
68,70:1
68,71:1
68,73:1
68,74:1
69,68:1
69,69:1
69,70:1
69,71:1
69,73:1
69,74:1
70,68:1
70,69:1
70,70:1
70,71:1
70,73:1
70,74:1
71,68:1
71,69:1
71,70:1
71,71:1
71,72:1
71,80:1
72,68:1
72,69:1
72,70:1
72,71:1
72,72:1
72,73:1
72,74:1
73,68:1
73,69:1
73,70:1
73,71:1
73,72:1
73,73:1
73,80:1
74,68:1
74,69:1
74,70:1
74,71:1
74,72:1
74,73:1
74,74:1
74,80:1
75,16:2
75,18:2
75,19:2
75,20:2
75,21:2
75,22:2
75,23:2
75,24:2
75,32:2
75,33:2
75,34:2
75,35:2
75,43:3
75,45:3
75,46:3
75,47:3
75,48:2
75,49:3
75,53:2
75,54:3
75,58:2
75,59:2
75,60:2
75,61:2
75,64:2
75,66:2
75,67:2
75,68:4
75,69:4
75,70:4
75,71:4
75,72:4
75,73:4
75,74:4
75,75:1
75,76:1
75,80:4
76,16:2
76,18:2
76,19:2
76,20:2
76,21:2
76,22:2
76,23:2
76,24:2
76,32:2
76,33:2
76,34:2
76,35:2
76,43:3
76,45:3
76,46:3
76,47:3
76,48:2
76,49:3
76,53:2
76,54:3
76,58:2
76,59:2
76,60:2
76,61:2
76,64:2
76,66:2
76,67:2
76,68:4
76,69:4
76,70:4
76,71:4
76,72:4
76,73:4
76,74:4
76,75:1
76,76:1
76,77:1
76,78:1
76,79:1
76,80:4
77,16:2
77,18:2
77,19:2
77,20:2
77,21:2
77,22:2
77,23:2
77,24:2
77,32:2
77,33:2
77,34:2
77,35:2
77,43:3
77,45:3
77,46:3
77,47:3
77,48:2
77,49:3
77,53:2
77,54:3
77,58:2
77,59:2
77,60:2
77,61:2
77,64:2
77,66:2
77,67:2
77,68:4
77,69:4
77,70:4
77,71:4
77,72:4
77,73:4
77,74:4
77,75:1
77,76:1
77,77:1
77,80:4
78,16:2
78,18:2
78,19:2
78,20:2
78,21:2
78,22:2
78,23:2
78,24:2
78,32:2
78,33:2
78,34:2
78,35:2
78,43:3
78,45:3
78,46:3
78,47:3
78,48:2
78,49:3
78,53:2
78,54:3
78,58:2
78,59:2
78,60:2
78,61:2
78,64:2
78,66:2
78,67:2
78,68:4
78,69:4
78,70:4
78,71:4
78,72:4
78,73:4
78,74:4
78,75:1
78,76:1
78,77:1
78,78:1
78,80:4
79,16:2
79,18:2
79,19:2
79,20:2
79,21:2
79,22:2
79,23:2
79,24:2
79,32:2
79,33:2
79,34:2
79,35:2
79,43:3
79,45:3
79,46:3
79,47:3
79,48:2
79,49:3
79,53:2
79,54:3
79,58:2
79,59:2
79,60:2
79,61:2
79,64:2
79,66:2
79,67:2
79,68:4
79,69:4
79,70:4
79,71:4
79,72:4
79,73:4
79,74:4
79,75:1
79,76:1
79,77:1
79,78:1
79,79:1
79,80:4
80,68:1
80,69:1
80,70:1
80,71:1
80,72:1
80,73:1
80,74:1
80,80:1
81,16:2
81,18:2
81,19:2
81,20:2
81,21:2
81,22:2
81,23:2
81,24:2
81,32:2
81,33:2
81,34:2
81,35:2
81,43:3
81,45:3
81,46:3
81,47:3
81,48:2
81,49:3
81,53:2
81,54:3
81,58:2
81,59:2
81,60:2
81,61:2
81,64:2
81,66:2
81,67:2
81,68:4
81,69:4
81,70:4
81,71:4
81,72:4
81,73:4
81,74:4
81,75:1
81,76:1
81,77:1
81,78:1
81,79:1
81,80:4
81,81:1
82,16:2
82,18:2
82,19:2
82,20:2
82,21:2
82,22:2
82,23:2
82,24:2
82,32:2
82,33:2
82,34:2
82,35:2
82,43:3
82,45:3
82,46:3
82,47:3
82,48:2
82,49:3
82,53:2
82,54:3
82,58:2
82,59:2
82,60:2
82,61:2
82,64:2
82,66:2
82,67:2
82,68:4
82,69:4
82,70:4
82,71:4
82,72:4
82,73:4
82,74:4
82,75:1
82,76:1
82,77:1
82,78:1
82,79:1
82,80:4
82,81:1
82,82:1
82,85:1
83,1:2
83,2:2
83,3:2
83,4:2
83,5:2
83,6:2
83,7:2
83,9:2
83,11:2
83,16:4
83,18:4
83,19:4
83,20:4
83,21:4
83,22:4
83,23:4
83,24:4
83,25:1
83,26:1
83,27:1
83,28:1
83,29:1
83,30:1
83,31:1
83,32:4
83,33:4
83,34:4
83,35:4
83,36:2
83,37:2
83,38:2
83,39:2
83,43:5
83,45:5
83,46:5
83,47:5
83,48:4
83,49:5
83,53:4
83,54:5
83,58:4
83,59:4
83,60:4
83,61:4
83,64:4
83,66:4
83,67:4
83,68:6
83,69:6
83,70:6
83,71:6
83,72:6
83,73:6
83,74:6
83,75:3
83,76:3
83,77:3
83,78:3
83,79:3
83,80:6
83,81:3
83,82:3
83,83:1
83,84:1
83,85:3
84,1:2
84,2:2
84,3:2
84,4:2
84,5:2
84,6:2
84,7:2
84,9:2
84,11:2
84,16:4
84,18:4
84,19:4
84,20:4
84,21:4
84,22:4
84,23:4
84,24:4
84,25:1
84,26:1
84,27:1
84,28:1
84,29:1
84,30:1
84,31:1
84,32:4
84,33:4
84,34:4
84,35:4
84,36:2
84,37:2
84,38:2
84,39:2
84,43:5
84,45:5
84,46:5
84,47:5
84,48:4
84,49:5
84,53:4
84,54:5
84,58:4
84,59:4
84,60:4
84,61:4
84,64:4
84,66:4
84,67:4
84,68:6
84,69:6
84,70:6
84,71:6
84,72:6
84,73:6
84,74:6
84,75:3
84,76:3
84,77:3
84,78:3
84,79:3
84,80:6
84,81:3
84,82:3
84,83:1
84,84:1
84,85:3
85,16:2
85,18:2
85,19:2
85,20:2
85,21:2
85,22:2
85,23:2
85,24:2
85,32:2
85,33:2
85,34:2
85,35:2
85,43:3
85,45:3
85,46:3
85,47:3
85,48:2
85,49:3
85,53:2
85,54:3
85,58:2
85,59:2
85,60:2
85,61:2
85,64:2
85,66:2
85,67:2
85,68:4
85,69:4
85,70:4
85,71:4
85,72:4
85,73:4
85,74:4
85,75:1
85,76:1
85,77:1
85,78:1
85,79:1
85,80:4
85,81:1
85,82:1
85,85:1
86,1:2
86,2:2
86,3:2
86,4:2
86,5:2
86,6:2
86,7:2
86,9:2
86,11:2
86,16:4
86,18:4
86,19:4
86,20:4
86,21:4
86,22:4
86,23:4
86,24:4
86,25:1
86,26:1
86,27:1
86,28:1
86,29:1
86,30:1
86,31:1
86,32:4
86,33:4
86,34:4
86,35:4
86,36:2
86,37:2
86,38:2
86,39:2
86,43:5
86,45:5
86,46:5
86,47:5
86,48:4
86,49:5
86,53:4
86,54:5
86,58:4
86,59:4
86,60:4
86,61:4
86,64:4
86,66:4
86,67:4
86,68:6
86,69:6
86,70:6
86,71:6
86,72:6
86,73:6
86,74:6
86,75:3
86,76:3
86,77:3
86,78:3
86,79:3
86,80:6
86,81:3
86,82:3
86,83:1
86,84:1
86,85:3
86,86:1
87,1:2
87,2:2
87,3:2
87,4:2
87,5:2
87,6:2
87,7:2
87,9:2
87,11:2
87,16:4
87,18:4
87,19:4
87,20:4
87,21:4
87,22:4
87,23:4
87,24:4
87,25:1
87,26:1
87,27:1
87,28:1
87,29:1
87,30:1
87,31:1
87,32:4
87,33:4
87,34:4
87,35:4
87,36:2
87,37:2
87,38:2
87,39:2
87,43:5
87,45:5
87,46:5
87,47:5
87,48:4
87,49:5
87,53:4
87,54:5
87,58:4
87,59:4
87,60:4
87,61:4
87,64:4
87,66:4
87,67:4
87,68:6
87,69:6
87,70:6
87,71:6
87,72:6
87,73:6
87,74:6
87,75:3
87,76:3
87,77:3
87,78:3
87,79:3
87,80:6
87,81:3
87,82:3
87,83:1
87,84:1
87,85:3
87,86:1
87,87:1
88,1:2
88,2:2
88,3:2
88,4:2
88,5:2
88,6:2
88,7:2
88,9:2
88,11:2
88,16:4
88,18:4
88,19:4
88,20:4
88,21:4
88,22:4
88,23:4
88,24:4
88,25:1
88,26:1
88,27:1
88,28:1
88,29:1
88,30:1
88,31:1
88,32:4
88,33:4
88,34:4
88,35:4
88,36:2
88,37:2
88,38:2
88,39:2
88,43:5
88,45:5
88,46:5
88,47:5
88,48:4
88,49:5
88,53:4
88,54:5
88,58:4
88,59:4
88,60:4
88,61:4
88,64:4
88,66:4
88,67:4
88,68:6
88,69:6
88,70:6
88,71:6
88,72:6
88,73:6
88,74:6
88,75:3
88,76:3
88,77:3
88,78:3
88,79:3
88,80:6
88,81:3
88,82:3
88,83:1
88,84:1
88,85:3
88,86:1
88,87:1
88,88:1
88,89:1
89,1:2
89,2:2
89,3:2
89,4:2
89,5:2
89,6:2
89,7:2
89,9:2
89,11:2
89,16:4
89,18:4
89,19:4
89,20:4
89,21:4
89,22:4
89,23:4
89,24:4
89,25:1
89,26:1
89,27:1
89,28:1
89,29:1
89,30:1
89,31:1
89,32:4
89,33:4
89,34:4
89,35:4
89,36:2
89,37:2
89,38:2
89,39:2
89,43:5
89,45:5
89,46:5
89,47:5
89,48:4
89,49:5
89,53:4
89,54:5
89,58:4
89,59:4
89,60:4
89,61:4
89,64:4
89,66:4
89,67:4
89,68:6
89,69:6
89,70:6
89,71:6
89,72:6
89,73:6
89,74:6
89,75:3
89,76:3
89,77:3
89,78:3
89,79:3
89,80:6
89,81:3
89,82:3
89,83:1
89,84:1
89,85:3
89,86:1
89,87:1
89,88:1
89,89:1

<end>

<optimal SALBP-1 value>
13


<rand seed>
467321153

